NAME : covtype.-4590149.tour
COMMENT : Length = -4590149
COMMENT : Found by LKH [Keld Helsgaun] Fri Jul  2 10:20:58 2021
TYPE : TOUR
DIMENSION : 54
TOUR_SECTION
1
3
10
4
6
52
30
23
19
17
34
48
33
42
49
35
18
47
45
24
53
29
26
20
14
15
37
38
40
25
50
51
41
39
12
44
11
43
46
36
21
32
22
54
16
28
31
27
13
9
2
7
5
8
-1
EOF
